c ! encoding i-pc 250
p cnf 466 729
162 -252 0
106 -253 0
142 -254 0
29 -255 0
238 -256 0
6 -257 0
-84 -257 0
-222 -257 0
257 -260 0
258 -260 0
259 -260 0
260 -261 0
170 -261 0
154 -262 0
7 -262 0
263 0
259 -264 0
264 -265 0
-7 -265 0
262 265 -266 0
267 -268 0
268 -269 0
84 -269 0
-222 -270 0
-84 -270 0
269 270 -271 0
266 -272 0
271 -272 0
272 -274 0
273 -274 0
274 -275 0
-170 -275 0
261 275 -276 0
-74 -277 0
153 -277 0
276 -278 0
277 -278 0
278 -279 0
208 -279 0
6 -280 0
-84 -280 0
170 -280 0
-222 -280 0
280 -281 0
7 -281 0
-170 -282 0
273 -282 0
282 -283 0
267 -283 0
283 -284 0
84 -284 0
6 -285 0
170 -285 0
273 -286 0
286 -287 0
-170 -287 0
285 287 -288 0
288 -289 0
-222 -289 0
289 -290 0
-84 -290 0
284 290 -291 0
291 -292 0
-7 -292 0
281 292 -293 0
293 -294 0
-154 -294 0
294 -297 0
295 -297 0
296 -297 0
297 -298 0
-208 -298 0
279 298 -299 0
99 -300 0
184 -300 0
301 -302 0
302 -303 0
-184 -303 0
300 303 -304 0
304 -305 0
229 -305 0
-99 -306 0
-184 -306 0
306 -307 0
-229 -307 0
305 307 -308 0
34 -309 0
299 -310 0
308 -310 0
309 -310 0
310 -311 0
215 -311 0
34 -312 0
154 -312 0
313 -314 0
314 -315 0
-154 -315 0
312 315 -316 0
6 -317 0
-84 -317 0
316 -318 0
317 -318 0
318 -319 0
258 -319 0
319 -320 0
170 -320 0
34 -321 0
154 -321 0
321 -322 0
7 -322 0
316 -323 0
-7 -323 0
322 323 -324 0
324 -326 0
273 -326 0
325 -326 0
326 -327 0
-170 -327 0
320 327 -328 0
328 -329 0
277 -329 0
329 -330 0
208 -330 0
6 -331 0
-84 -331 0
170 -331 0
331 -332 0
7 -332 0
-170 -333 0
273 -333 0
333 -334 0
84 -334 0
288 -335 0
-84 -335 0
334 335 -336 0
336 -337 0
-7 -337 0
332 337 -338 0
338 -339 0
-154 -339 0
313 -339 0
339 -340 0
295 -340 0
296 -340 0
340 -341 0
-208 -341 0
330 341 -342 0
99 -343 0
184 -343 0
343 -344 0
79 -344 0
308 -345 0
-79 -345 0
344 345 -346 0
342 -348 0
346 -348 0
-222 -348 0
347 -348 0
348 -349 0
-215 -349 0
351 -352 0
352 -353 0
247 -353 0
62 -354 0
-247 -354 0
353 354 -355 0
67 -356 0
357 -359 0
358 -359 0
350 -360 0
355 -360 0
356 -360 0
359 -360 0
18 -361 0
355 -363 0
362 -363 0
363 -364 0
44 -364 0
351 -366 0
365 -366 0
366 -367 0
37 -367 0
355 -368 0
-37 -368 0
367 368 -369 0
369 -371 0
370 -371 0
371 -372 0
-44 -372 0
364 372 -373 0
-7 -374 0
-154 -374 0
-208 -374 0
373 -375 0
374 -375 0
295 -375 0
375 -376 0
74 -376 0
153 -377 0
154 -377 0
208 -377 0
377 -378 0
7 -378 0
208 -379 0
154 -379 0
380 -381 0
381 -382 0
-154 -382 0
379 382 -383 0
383 -384 0
153 -384 0
-154 -385 0
-208 -385 0
385 -386 0
-153 -386 0
384 386 -387 0
387 -388 0
-7 -388 0
378 388 -389 0
389 -391 0
355 -391 0
390 -391 0
391 -392 0
-74 -392 0
358 -394 0
394 -395 0
67 -395 0
250 -396 0
-67 -396 0
395 396 -397 0
397 -398 0
121 -398 0
399 -400 0
358 -400 0
400 -401 0
-121 -401 0
34 -403 0
84 -403 0
-170 -403 0
222 -403 0
393 -404 0
402 -404 0
308 -404 0
403 -404 0
273 -404 0
-18 -405 0
407 -408 0
408 -409 0
173 -409 0
-173 -410 0
412 -413 0
413 -414 0
188 -414 0
-188 -415 0
417 -418 0
69 -418 0
419 -421 0
420 -421 0
421 -422 0
-69 -422 0
425 -429 0
426 -429 0
427 -429 0
428 -429 0
406 -430 0
411 -430 0
416 -430 0
423 -430 0
429 -430 0
-238 -431 0
108 -435 0
-108 -436 0
-29 -440 0
91 -442 0
-91 -443 0
-142 -446 0
198 -448 0
-198 -449 0
-106 -451 0
146 -453 0
-146 -454 0
113 -456 0
-113 -457 0
245 -459 0
-245 -460 0
185 -462 0
-185 -463 0
-162 -465 0
-1 0
-2 0
3 0
4 0
5 0
8 0
9 0
-10 0
-11 0
12 0
13 0
14 0
-15 0
16 0
-17 0
-19 0
20 0
21 0
-22 0
24 0
-25 0
-26 0
-27 0
28 0
-30 0
-31 0
-32 0
33 0
-35 0
36 0
-38 0
39 0
-40 0
-41 0
-42 0
-43 0
-45 0
-46 0
47 0
-48 0
-49 0
50 0
51 0
-52 0
-53 0
-54 0
-55 0
-56 0
57 0
58 0
59 0
60 0
-61 0
-63 0
-64 0
65 0
66 0
-68 0
-70 0
-71 0
-72 0
-73 0
-75 0
-76 0
77 0
78 0
-80 0
81 0
-82 0
-83 0
-85 0
86 0
-87 0
-88 0
-89 0
90 0
92 0
-93 0
94 0
95 0
96 0
97 0
-98 0
100 0
-101 0
-102 0
103 0
104 0
-105 0
-107 0
-109 0
110 0
111 0
-112 0
-114 0
-115 0
-116 0
-117 0
118 0
-122 0
123 0
124 0
-125 0
126 0
127 0
-128 0
129 0
131 0
-132 0
133 0
-134 0
-135 0
136 0
137 0
-138 0
-140 0
-141 0
-143 0
144 0
-145 0
147 0
-148 0
149 0
150 0
-151 0
-152 0
155 0
-156 0
-157 0
-158 0
159 0
160 0
-161 0
163 0
-164 0
165 0
-166 0
-167 0
-168 0
169 0
-171 0
-172 0
-174 0
-175 0
176 0
177 0
178 0
180 0
-181 0
-182 0
183 0
186 0
187 0
189 0
-190 0
-191 0
-192 0
-193 0
-194 0
-195 0
196 0
197 0
-199 0
-200 0
-201 0
-203 0
204 0
-205 0
206 0
-209 0
-210 0
-211 0
212 0
-213 0
214 0
216 0
-217 0
-218 0
220 0
221 0
-223 0
224 0
225 0
226 0
227 0
228 0
-230 0
231 0
-232 0
-233 0
-234 0
235 0
-236 0
237 0
-240 0
-241 0
242 0
-243 0
244 0
-246 0
248 0
-249 0
-464 465 0
-447 448 0
-445 446 0
-444 445 0
-442 444 0
-440 441 0
-448 450 0
-435 437 0
-434 435 0
-4 433 0
-431 432 0
-432 434 0
-439 440 0
-343 344 0
-342 348 0
99 301 306 0
-380 381 0
-340 341 0
-302 303 0
-371 372 0
-334 336 0
-326 327 0
-297 298 0
-247 353 365 0
-325 326 0
-296 297 340 0
-320 328 0
-279 299 0
-311 350 0
-332 338 0
-310 311 0
-309 310 0
-452 453 0
-287 288 0
-261 276 0
67 396 399 0
-404 405 0
229 307 0
-319 320 0
-298 299 0
208 298 341 374 380 385 0
-352 353 0
-74 296 376 0
-424 430 0
-354 355 0
153 295 386 0
-260 261 0
-324 326 0
-307 308 0
-462 464 0
-294 297 0
-421 422 0
-322 324 0
-306 307 0
-292 293 0
-37 367 0
-303 304 0
154 259 294 315 339 374 382 385 0
-316 318 323 0
-300 304 0
-170 261 280 285 320 331 0
-264 265 0
7 258 265 292 323 337 374 388 0
-383 384 0
-321 322 0
-304 305 0
-381 382 0
-459 461 0
-281 293 0
-330 342 0
-301 302 0
-259 260 264 0
-275 276 0
-262 266 0
-34 309 312 313 321 403 0
-362 363 0
-419 421 0
-280 281 0
-295 297 340 375 0
222 257 267 270 280 289 348 0
-184 300 343 0
-269 271 0
-328 329 0
-272 274 0
-314 315 0
-263 264 268 286 302 314 352 366 381 394 400 408 413 421 0
-289 290 0
-315 316 0
-341 342 0
6 273 0
170 275 282 287 327 333 403 0
-338 339 0
-67 356 395 399 0
-373 375 0
-465 466 0
-339 340 0
-402 404 0
-323 324 0
34 313 0
-318 319 0
-374 375 0
-305 308 0
-290 291 0
-461 462 0
-293 294 0
-455 456 0
-283 284 0
-188 414 0
-153 277 295 377 384 0
-273 274 282 286 326 333 404 0
-312 316 0
121 357 401 0
-208 279 330 377 379 380 0
-453 455 0
-288 289 335 0
-268 269 0
-154 259 262 312 321 377 379 0
-278 279 0
-327 328 0
-266 272 0
-229 305 343 0
-265 266 0
-276 278 0
-222 267 403 0
-267 268 283 0
-84 269 284 325 334 403 0
-347 348 0
74 277 296 392 0
-378 389 0
202 412 0
-299 310 0
-6 257 273 280 285 317 331 0
-335 336 0
-274 275 0
-329 330 0
-270 271 0
-277 278 329 0
-251 252 253 254 255 256 436 443 449 454 457 460 463 0
-450 451 0
-282 283 0
-271 272 0
-333 334 0
-456 458 0
-284 291 0
-336 337 0
-366 367 0
-451 452 0
-285 288 0
-317 318 0
62 351 0
-337 338 0
-313 314 339 0
-345 346 0
-7 258 262 281 322 332 378 0
-346 348 0
120 347 0
-359 360 0
-348 349 0
-349 350 0
-350 360 0
173 410 0
-351 352 366 0
-353 355 0
247 354 365 0
-356 360 0
-130 419 0
-258 260 319 0
-121 357 398 0
-384 387 0
-357 359 0
-458 459 0
-291 292 0
-446 447 0
-250 358 396 0
250 358 0
-358 359 394 400 0
-331 332 0
-438 439 0
-360 361 0
-388 389 0
195 438 0
-79 344 0
-363 364 0
84 257 270 280 290 317 325 331 335 0
-364 373 0
-393 404 0
-257 260 0
-367 369 0
-368 369 0
-369 371 0
179 370 0
-376 393 0
-370 371 0
44 372 0
-372 373 0
-62 351 354 0
-377 378 0
215 349 0
-379 383 0
-408 409 0
-382 383 0
-385 386 0
-413 414 0
-387 388 0
-389 391 0
-417 418 0
-390 391 0
-391 392 0
-392 393 0
-394 395 0
184 303 306 0
-386 387 0
-395 397 0
-396 397 0
-397 398 0
-398 402 0
-399 400 0
-400 401 0
-401 402 0
-403 404 0
-344 346 0
-23 407 0
-407 408 0
-430 431 0
-365 366 0
-173 409 0
69 422 0
-412 413 0
188 415 0
-286 287 0
-69 418 0
219 420 0
-420 421 0
-441 442 0
-179 356 362 370 390 0
-375 376 0
-308 310 345 404 0
-355 360 363 368 391 0
-20 424 0
